HeuristicsProject/solutions/greedy/camera_K9_N20_0.sol
z =     744.00;
Covered crossing-day pairs: 140 / 140
Assignments (modelId, crossingId, pattern):
  Model 8 -> Crossing 10, Pattern: (0, 1, 1, 1, 1, 1, 1)
  Model 8 -> Crossing 0, Pattern: (1, 0, 1, 1, 1, 1, 1)
  Model 8 -> Crossing 7, Pattern: (1, 1, 0, 1, 1, 1, 1)
  Model 8 -> Crossing 6, Pattern: (1, 1, 0, 1, 1, 1, 1)
  Model 8 -> Crossing 13, Pattern: (1, 1, 1, 0, 1, 1, 1)
  Model 8 -> Crossing 5, Pattern: (1, 0, 1, 1, 1, 1, 1)
  Model 8 -> Crossing 1, Pattern: (0, 1, 1, 1, 1, 1, 1)
  Model 6 -> Crossing 12, Pattern: (0, 1, 1, 0, 0, 0, 0)
  Model 7 -> Crossing 3, Pattern: (0, 0, 0, 1, 1, 0, 0)
  Model 7 -> Crossing 18, Pattern: (1, 0, 0, 0, 0, 0, 1)
  Model 3 -> Crossing 9, Pattern: (1, 0, 0, 0, 0, 0, 1)
